Academic license - for non-commercial use only
Optimize a model with 30075 rows, 155051 columns and 330123 nonzeros
Variable types: 155025 continuous, 26 integer (0 binary)
Coefficient statistics:
  Matrix range     [1e+00, 7e+02]
  Objective range  [5e-02, 8e+01]
  Bounds range     [6e-04, 1e+01]
  RHS range        [3e-01, 6e+00]
Found heuristic solution: objective 1144.7008000
Found heuristic solution: objective 1144.7008000
Presolve removed 7172 rows and 69182 columns
Presolve time: 0.82s
Presolved: 22903 rows, 85869 columns, 192874 nonzeros
Variable types: 85843 continuous, 26 integer (26 binary)
Deterministic concurrent LP optimizer: primal and dual simplex
Showing first log only...

Concurrent spin time: 0.00s

Solved with primal simplex
Root relaxation: objective 5.569796e+02, 22167 iterations, 1.62 seconds
    Nodes    |    Current Node    |     Objective Bounds      |     Work
 Expl Unexpl |  Obj  Depth IntInf | Incumbent    BestBd   Gap | It/Node Time
     0     0  560.09084    0   24 1144.70080  560.09084  51.1%     -    2s
H    0     0                     589.9588440  560.09084  5.06%     -    2s
     0     0  560.10096    0   24  589.95884  560.10096  5.06%     -    4s
     0     0  560.10478    0   24  589.95884  560.10478  5.06%     -    4s
     0     0  560.11445    0   24  589.95884  560.11445  5.06%     -    5s
     0     0  560.12303    0   15  589.95884  560.12303  5.06%     -    9s
     0     0  560.12373    0    8  589.95884  560.12373  5.06%     -   12s
     0     0  560.13068    0    8  589.95884  560.13068  5.06%     -   18s
     0     0  560.13737    0    8  589.95884  560.13737  5.05%     -   21s
     0     0  560.16798    0    8  589.95884  560.16798  5.05%     -   27s
     0     0  560.29071    0    8  589.95884  560.29071  5.03%     -   30s
     0     0  560.47471    0    8  589.95884  560.47471  5.00%     -   40s
     0     0  560.84272    0    8  589.95884  560.84272  4.94%     -   45s
     0     0  561.88466    0    8  589.95884  561.88466  4.76%     -   50s
     0     0  562.12234    0    8  589.95884  562.12234  4.72%     -   62s
     0     0  562.38107    0    8  589.95884  562.38107  4.67%     -   71s
     0     0  562.77569    0    8  589.95884  562.77569  4.61%     -   81s
     0     0  563.41510    0    8  589.95884  563.41510  4.50%     -   90s
     0     0  564.18313    0    8  589.95884  564.18313  4.37%     -  101s
     0     0  564.74168    0    8  589.95884  564.74168  4.27%     -  109s
     0     0  565.37133    0    8  589.95884  565.37133  4.17%     -  125s
     0     0  566.29141    0    8  589.95884  566.29141  4.01%     -  138s
     0     0  566.86274    0    8  589.95884  566.86274  3.91%     -  158s
     0     0  567.72680    0    8  589.95884  567.72680  3.77%     -  182s
     0     0  568.72496    0    8  589.95884  568.72496  3.60%     -  202s
     0     0  569.85934    0    8  589.95884  569.85934  3.41%     -  221s
     0     0  570.73355    0    8  589.95884  570.73355  3.26%     -  245s
     0     0  572.21292    0    8  589.95884  572.21292  3.01%     -  264s
     0     0  572.86436    0    8  589.95884  572.86436  2.90%     -  278s
     0     0  574.52552    0    8  589.95884  574.52552  2.62%     -  462s
     0     0  577.11761    0    8  589.95884  577.11761  2.18%     -  491s
     0     0  579.78895    0    8  589.95884  579.78895  1.72%     -  943s
     0     0  581.02645    0    8  589.95884  581.02645  1.51%     - 1008s
     0     0  582.40990    0    6  589.95884  582.40990  1.28%     - 1050s
     0     0  583.15606    0    6  589.95884  583.15606  1.15%     - 1076s
     0     0  583.21298    0    5  589.95884  583.21298  1.14%     - 1079s
     0     0  583.21724    0    5  589.95884  583.21724  1.14%     - 1080s
     0     0  583.21724    0    5  589.95884  583.21724  1.14%     - 1080s
     0     0  583.41394    0    7  589.95884  583.41394  1.11%     - 1083s
H    0     0                     585.4460991  583.41394  0.35%     - 1083s
     0     0  583.42136    0    6  585.44610  583.42136  0.35%     - 1084s
     0     0  583.60245    0    6  585.44610  583.60245  0.31%     - 1087s
     0     0  583.60650    0    5  585.44610  583.60650  0.31%     - 1088s
     0     0  583.78425    0    4  585.44610  583.78425  0.28%     - 1090s
     0     0  583.78425    0    4  585.44610  583.78425  0.28%     - 1090s
     0     0  583.92588    0    4  585.44610  583.92588  0.26%     - 1092s
     0     0  583.92588    0    4  585.44610  583.92588  0.26%     - 1093s
     0     2  583.92588    0    4  585.44610  583.92588  0.26%     - 1094s
     1     2     cutoff    1       585.44610  583.92595  0.26%   6.0 1096s
     3     2  584.22280    2    3  585.44610  583.93916  0.26%  5273 1102s
     7     2  585.30031    4    5  585.44610  584.24613  0.20%  9583 1146s
    14     2 infeasible    8       585.44610  585.30099  0.02%  4864 1152s
Cutting planes:
  Implied bound: 62141
  MIR: 65
  Flow cover: 40

Explored 17 nodes (736805 simplex iterations) in 1152.15 seconds
Thread count was 4 (of 4 available processors)

Solution count 4: 585.446 589.959 1144.7 1144.7 

Optimal solution found (tolerance 1.00e-04)
Best objective 5.854460991022e+02, best bound 5.854256081763e+02, gap 0.0035%
Gurobi status= 2